\ENCODING=ISO-8859-1
\Problem name: ilog.cplex

Minimize
 obj: 54.7707852769845 P184 + 92.1736103973648 P185 + 171.89914314628 P186
      + 201.999472004927 P187 + 210.683412964808 P188 + 210.727966400207 P189
      + 216.419476432224 P190 + 221.816095987308 P191 + 168.370800157652 P192
      + 168.377263937789 P193 + 168.415353593051 P194 + 174.106863625068 P195
      + 179.503483180152 P196 + 161.659688359523 P197 + 162.940237173318 P198
      + 108.473396695761 P199 + 168.6197491627 P200 + 115.042635854743 P201
      + 123.712701380857 P202 + 126.232811156675 P203 + 46.4696993759281 P204
      + 53.0389385349097 P205 + 165.135072779029 P206 + 165.179626214428 P207
      + 170.871136246445 P208 + 176.267755801528 P209 + 122.772372273977 P210
      + 122.816925709375 P211 + 128.508435741392 P212 + 133.905055296476 P213
      + 116.111348173743 P214 + 123.071408976921 P215 + 123.127849730796 P216
      + 73.4436812459041 P217 + 75.6539352363381 P218 + 78.164361195078 P219
      + 80.6844709708958 P220 + 254.757937095141 P221 + 205.734212489855 P222
      + 254.80249053054 P223 + 145.499572814107 P224 + 252.56310148943 P225
      + 194.717178085396 P226 + 194.761731520795 P227 + 198.096261011873 P228
      + 192.328461813682 P229 + 138.055502002128 P230 + 260.494000562557 P231
      + 212.694273293033 P232 + 212.750714046908 P233 + 200.453241552812 P234
      + 152.459633617285 P235 + 152.51607437116 P236 + 204.665500170855 P237
      + 144.62474116111 P238 + 163.066545562016 P239 + 205.849861107896 P240
      + 165.27679955245 P241 + 105.236040542705 P242 + 105.258699881885 P243
      + 106.22145543443 P244 + 110.07269561126 P245 + 122.42523067935 P246
      + 228.355009690935 P247 + 179.33128508565 P248 + 228.399563126334 P249
      + 64.0967426666562 P250 + 64.1412961020551 P251 + 234.091073158351 P252
      + 69.8328061340717 P253 + 75.2294256891556 P254 + 292.08624311226 P255
      + 246.53790292648 P256 + 293.366791926055 P257 + 239.093832114501 P258
      + 299.046303915437 P259 + 253.497963729658 P260 + 253.554404483533 P261
      + 245.663071273483 P262 + 206.274370655078 P263 + 206.297029994258 P264
      + 203.091322530613 P265 + 207.259785546803 P266 + 142.856682854865 P267
      + 192.074288126154 P268 + 192.118841561553 P269 + 204.175202421428 P270
      + 211.111025723633 P271 + 210.051383333791 P272 + 210.107824087666 P273
      + 197.81035159357 P274 + 149.816743658043 P275 + 149.873184411918 P276
      + 211.135263224605 P277 + 211.191703978481 P278 + 160.423655602774 P279
      + 203.206971148653 P280 + 162.633909593208 P281 + 102.593150583463 P282
      + 102.615810355482 P283 + 216.31000346234 P284 + 103.578565475188 P285
      + 223.463560791723 P286 + 163.911670150026 P287 + 163.934329489205 P288
      + 164.897085041751 P289 + 107.429805652018 P290 + 179.403346606374 P291
      + 119.168706930626 P292 + 168.386312201915 P293 + 168.430865637314 P294
      + 168.74832521858 P295 + 183.362510576698 P296 + 183.385169915877 P297
      + 330.982346169418 P298 + 304.579418765212 P299 + 270.74770649367 P300
      + 189.344876346219 P301 + 189.389429781617 P302 + 195.080939813634 P303
      + 322.079839858927 P304 + 295.676912454721 P305 + 261.845200183179 P306
      + 180.442370035728 P307 + 180.486923471127 P308 + 200.477559368718 P309
      + 186.178433503143 P310 + 263.85957527289 P311 + 218.769272159673 P312
      + 148.669586289296 P313 + 260.531241203142 P314 + 159.492911090769 P315
      + 191.575053058227 P316 + 265.447658088928 P317 + 265.492211524327 P318
      + 270.819636076068 P319 + 225.729332962851 P320 + 225.785773716726 P321
      + 155.238825448278 P322 + 267.471346380211 P323 + 267.49130200632 P324
      + 267.51589981561 P325 + 209.866765849182 P326 + 166.452971893947 P327
      + 166.509412647823 P328 + 150.59040434744 P329 + 208.914013431879 P330
      + 208.958566867278 P331 + 216.888454942246 P332 + 176.101605231834 P333
      + 216.911114714265 P334 + 237.052973517697 P335 + 155.650143370246 P336
      + 155.694696805645 P337 + 115.850124829873 P338 + 115.872784601892 P339
      + 216.82682665236 P340 + 216.883267406235 P341 + 214.650076899295 P342
      + 157.550465150617 P343 + 157.606905904493 P344 + 161.386206837662 P345
      + 167.199098921343 P346 + 106.947618519382 P347 + 106.970278291401 P348
      + 166.782826392745 P349 + 185.0745391837 P350 + 114.974853313324 P351
      + 125.798177681958 P352 + 191.952906572582 P353 + 191.975566344601 P354
      + 192.034599986878 P355 + 192.091040740754 P356 + 121.544092472305 P357
      + 193.976594863865 P358 + 193.999254635884 P359 + 132.758238485136 P360
      + 132.814679239011 P361 + 142.406872255861 P362 + 82.1553918539004 P363
      + 82.1780516259192 P364 + 109.701634330469 P365 + 110.515335088333 P366
      + 234.949768010031 P367 + 235.763468767896 P368 + 317.166298915347 P369
      + 191.918165235784 P370 + 252.152804911533 P371
Subject To
 c1: P187 + P188 + P189 + P190 + P191 + P192 + P193 + P194 + P195 + P196 + P197
     + P198 + P199 + P200 + P201 + P202 + P203 + P204 + P205 + P225 + P228
     + P229 + P230 + P237 + P238 + P255 + P257 + P258 + P259 + P262 + P265
     + P267 + P268 + P269 + P272 + P273 + P274 + P275 + P276 + P279 + P280
     + P281 + P282 + P283 + P285 + P290 + P304 + P305 + P306 + P307 + P308
     + P310 + P311 + P313 + P316 + P319 + P322 + P326 + P329 + P340 + P341
     + P343 + P344 + P346 + P347 + P348 + P351 + P357 + P365 + P366 + P367
     + P368 + P369 + P370 + P371  = 1
 c1: P186 + P188 + P189 + P190 + P191 + P192 + P193 + P194 + P195 + P196 + P206
     + P207 + P208 + P209 + P210 + P211 + P212 + P213 + P221 + P223 + P226
     + P227 + P231 + P234 + P240 + P247 + P249 + P252 + P255 + P256 + P257
     + P258 + P259 + P260 + P261 + P262 + P263 + P264 + P266 + P268 + P269
     + P270 + P271 + P274 + P277 + P278 + P280 + P284 + P286 + P287 + P288
     + P289 + P293 + P294 + P295 + P298 + P299 + P300 + P301 + P302 + P303
     + P304 + P305 + P306 + P307 + P308 + P309 + P310 + P314 + P316 + P317
     + P318 + P323 + P324 + P325 + P330 + P331 + P332 + P334 + P335 + P336
     + P337 + P342 + P345 + P349 + P367 + P368 + P369  = 1
 c2: P184 + P197 + P198 + P200 + P214 + P215 + P216 + P222 + P224 + P225 + P229
     + P232 + P233 + P235 + P236 + P248 + P255 + P256 + P257 + P259 + P260
     + P261 + P265 + P267 + P270 + P272 + P273 + P275 + P276 + P277 + P278
     + P284 + P291 + P292 + P296 + P297 + P298 + P299 + P300 + P304 + P305
     + P306 + P311 + P312 + P314 + P315 + P317 + P318 + P319 + P320 + P321
     + P323 + P324 + P325 + P326 + P327 + P328 + P329 + P330 + P331 + P335
     + P340 + P341 + P342 + P343 + P344 + P350 + P352 + P353 + P354 + P355
     + P356 + P358 + P359 + P360 + P361 + P369 + P370 + P371  = 1
 c3: P186 + P221 + P222 + P223 + P224 + P225 + P226 + P227 + P228 + P229 + P230
     + P231 + P232 + P233 + P234 + P235 + P236 + P237 + P238 + P239 + P240
     + P241 + P242 + P243 + P244 + P245 + P246 + P255 + P256 + P257 + P258
     + P259 + P260 + P261 + P262 + P263 + P264 + P265 + P266 + P267 + P268
     + P269 + P270 + P271 + P272 + P273 + P274 + P275 + P276 + P277 + P278
     + P279 + P280 + P281 + P282 + P283 + P284 + P285 + P286 + P287 + P288
     + P289 + P290 + P291 + P292 + P293 + P294 + P295 + P296 + P297 + P298
     + P300 + P304 + P306 + P335 + P369 + P370 + P371  = 1
 c4: P187 + P221 + P222 + P223 + P224 + P225 + P226 + P227 + P228 + P229 + P230
     + P231 + P232 + P233 + P234 + P235 + P236 + P237 + P238 + P239 + P240
     + P241 + P242 + P243 + P244 + P245 + P246 + P247 + P248 + P249 + P250
     + P251 + P252 + P253 + P254 + P298 + P299 + P300 + P301 + P302 + P303
     + P309 + P311 + P312 + P313 + P315 + P319 + P320 + P321 + P322 + P327
     + P328 + P333 + P338 + P339 + P365 + P366 + P367 + P368 + P369 + P370
     + P371  = 1
 c5: P187 + P298 + P299 + P300 + P301 + P302 + P303 + P304 + P305 + P306 + P307
     + P308 + P309 + P310 + P311 + P312 + P313 + P314 + P315 + P316 + P317
     + P318 + P319 + P320 + P321 + P322 + P323 + P324 + P325 + P326 + P327
     + P328 + P329 + P330 + P331 + P332 + P333 + P334 + P335 + P336 + P337
     + P338 + P339 + P340 + P341 + P342 + P343 + P344 + P345 + P346 + P347
     + P348 + P349 + P350 + P351 + P352 + P353 + P354 + P355 + P356 + P357
     + P358 + P359 + P360 + P361 + P362 + P363 + P364 + P367 + P368 + P369  = 1
 c6: P185 + P188 + P189 + P190 + P191 + P197 + P198 + P199 + P200 + P201 + P202
     + P203 + P206 + P207 + P208 + P209 + P214 + P215 + P216 + P217 + P218
     + P219 + P220 + P221 + P222 + P223 + P225 + P228 + P231 + P232 + P233
     + P237 + P239 + P241 + P247 + P248 + P249 + P252 + P255 + P256 + P257
     + P258 + P259 + P260 + P261 + P262 + P263 + P264 + P265 + P266 + P271
     + P272 + P273 + P279 + P281 + P286 + P291 + P296 + P297 + P298 + P299
     + P304 + P305 + P311 + P312 + P314 + P317 + P318 + P319 + P320 + P321
     + P323 + P324 + P325 + P326 + P332 + P333 + P334 + P340 + P341 + P346
     + P350 + P353 + P354 + P355 + P356 + P358 + P359 + P362 + P371  = 1
 c7: P184 + P185 + P186 + P187 + P188 + P189 + P190 + P191 + P192 + P193 + P194
     + P195 + P196 + P197 + P198 + P199 + P200 + P201 + P202 + P203 + P204
     + P205 + P206 + P207 + P208 + P209 + P210 + P211 + P212 + P213 + P214
     + P215 + P216 + P217 + P218 + P219 + P220 + P221 + P222 + P223 + P224
     + P225 + P226 + P227 + P228 + P229 + P230 + P231 + P232 + P233 + P234
     + P235 + P236 + P237 + P238 + P239 + P240 + P241 + P242 + P243 + P244
     + P245 + P246 + P247 + P248 + P249 + P250 + P251 + P252 + P253 + P254
     + P255 + P256 + P257 + P258 + P259 + P260 + P261 + P262 + P263 + P264
     + P265 + P266 + P267 + P268 + P269 + P270 + P271 + P272 + P273 + P274
     + P275 + P276 + P277 + P278 + P279 + P280 + P281 + P282 + P283 + P284
     + P285 + P286 + P287 + P288 + P289 + P290 + P291 + P292 + P293 + P294
     + P295 + P296 + P297 + P298 + P299 + P300 + P301 + P302 + P303 + P304
     + P305 + P306 + P307 + P308 + P309 + P310 + P311 + P312 + P313 + P314
     + P315 + P316 + P317 + P318 + P319 + P320 + P321 + P322 + P323 + P324
     + P325 + P326 + P327 + P328 + P329 + P330 + P331 + P332 + P333 + P334
     + P335 + P336 + P337 + P338 + P339 + P340 + P341 + P342 + P343 + P344
     + P345 + P346 + P347 + P348 + P349 + P350 + P351 + P352 + P353 + P354
     + P355 + P356 + P357 + P358 + P359 + P360 + P361 + P362 + P363 + P364
     + P365 + P366 + P367 + P368 + P369 + P370 + P371 <= 4
Bounds
 0 <= P184 <= 1
 0 <= P185 <= 1
 0 <= P186 <= 1
 0 <= P187 <= 1
 0 <= P188 <= 1
 0 <= P189 <= 1
 0 <= P190 <= 1
 0 <= P191 <= 1
 0 <= P192 <= 1
 0 <= P193 <= 1
 0 <= P194 <= 1
 0 <= P195 <= 1
 0 <= P196 <= 1
 0 <= P197 <= 1
 0 <= P198 <= 1
 0 <= P199 <= 1
 0 <= P200 <= 1
 0 <= P201 <= 1
 0 <= P202 <= 1
 0 <= P203 <= 1
 0 <= P204 <= 1
 0 <= P205 <= 1
 0 <= P206 <= 1
 0 <= P207 <= 1
 0 <= P208 <= 1
 0 <= P209 <= 1
 0 <= P210 <= 1
 0 <= P211 <= 1
 0 <= P212 <= 1
 0 <= P213 <= 1
 0 <= P214 <= 1
 0 <= P215 <= 1
 0 <= P216 <= 1
 0 <= P217 <= 1
 0 <= P218 <= 1
 0 <= P219 <= 1
 0 <= P220 <= 1
 0 <= P221 <= 1
 0 <= P222 <= 1
 0 <= P223 <= 1
 0 <= P224 <= 1
 0 <= P225 <= 1
 0 <= P226 <= 1
 0 <= P227 <= 1
 0 <= P228 <= 1
 0 <= P229 <= 1
 0 <= P230 <= 1
 0 <= P231 <= 1
 0 <= P232 <= 1
 0 <= P233 <= 1
 0 <= P234 <= 1
 0 <= P235 <= 1
 0 <= P236 <= 1
 0 <= P237 <= 1
 0 <= P238 <= 1
 0 <= P239 <= 1
 0 <= P240 <= 1
 0 <= P241 <= 1
 0 <= P242 <= 1
 0 <= P243 <= 1
 0 <= P244 <= 1
 0 <= P245 <= 1
 0 <= P246 <= 1
 0 <= P247 <= 1
 0 <= P248 <= 1
 0 <= P249 <= 1
 0 <= P250 <= 1
 0 <= P251 <= 1
 0 <= P252 <= 1
 0 <= P253 <= 1
 0 <= P254 <= 1
 0 <= P255 <= 1
 0 <= P256 <= 1
 0 <= P257 <= 1
 0 <= P258 <= 1
 0 <= P259 <= 1
 0 <= P260 <= 1
 0 <= P261 <= 1
 0 <= P262 <= 1
 0 <= P263 <= 1
 0 <= P264 <= 1
 0 <= P265 <= 1
 0 <= P266 <= 1
 0 <= P267 <= 1
 0 <= P268 <= 1
 0 <= P269 <= 1
 0 <= P270 <= 1
 0 <= P271 <= 1
 0 <= P272 <= 1
 0 <= P273 <= 1
 0 <= P274 <= 1
 0 <= P275 <= 1
 0 <= P276 <= 1
 0 <= P277 <= 1
 0 <= P278 <= 1
 0 <= P279 <= 1
 0 <= P280 <= 1
 0 <= P281 <= 1
 0 <= P282 <= 1
 0 <= P283 <= 1
 0 <= P284 <= 1
 0 <= P285 <= 1
 0 <= P286 <= 1
 0 <= P287 <= 1
 0 <= P288 <= 1
 0 <= P289 <= 1
 0 <= P290 <= 1
 0 <= P291 <= 1
 0 <= P292 <= 1
 0 <= P293 <= 1
 0 <= P294 <= 1
 0 <= P295 <= 1
 0 <= P296 <= 1
 0 <= P297 <= 1
 0 <= P298 <= 1
 0 <= P299 <= 1
 0 <= P300 <= 1
 0 <= P301 <= 1
 0 <= P302 <= 1
 0 <= P303 <= 1
 0 <= P304 <= 1
 0 <= P305 <= 1
 0 <= P306 <= 1
 0 <= P307 <= 1
 0 <= P308 <= 1
 0 <= P309 <= 1
 0 <= P310 <= 1
 0 <= P311 <= 1
 0 <= P312 <= 1
 0 <= P313 <= 1
 0 <= P314 <= 1
 0 <= P315 <= 1
 0 <= P316 <= 1
 0 <= P317 <= 1
 0 <= P318 <= 1
 0 <= P319 <= 1
 0 <= P320 <= 1
 0 <= P321 <= 1
 0 <= P322 <= 1
 0 <= P323 <= 1
 0 <= P324 <= 1
 0 <= P325 <= 1
 0 <= P326 <= 1
 0 <= P327 <= 1
 0 <= P328 <= 1
 0 <= P329 <= 1
 0 <= P330 <= 1
 0 <= P331 <= 1
 0 <= P332 <= 1
 0 <= P333 <= 1
 0 <= P334 <= 1
 0 <= P335 <= 1
 0 <= P336 <= 1
 0 <= P337 <= 1
 0 <= P338 <= 1
 0 <= P339 <= 1
 0 <= P340 <= 1
 0 <= P341 <= 1
 0 <= P342 <= 1
 0 <= P343 <= 1
 0 <= P344 <= 1
 0 <= P345 <= 1
 0 <= P346 <= 1
 0 <= P347 <= 1
 0 <= P348 <= 1
 0 <= P349 <= 1
 0 <= P350 <= 1
 0 <= P351 <= 1
 0 <= P352 <= 1
 0 <= P353 <= 1
 0 <= P354 <= 1
 0 <= P355 <= 1
 0 <= P356 <= 1
 0 <= P357 <= 1
 0 <= P358 <= 1
 0 <= P359 <= 1
 0 <= P360 <= 1
 0 <= P361 <= 1
 0 <= P362 <= 1
 0 <= P363 <= 1
 0 <= P364 <= 1
 0 <= P365 <= 1
 0 <= P366 <= 1
 0 <= P367 <= 1
 0 <= P368 <= 1
 0 <= P369 <= 1
 0 <= P370 <= 1
 0 <= P371 <= 1
Generals
 P184  P185  P186  P187  P188  P189  P190  P191  P192  P193  P194  P195  P196 
 P197  P198  P199  P200  P201  P202  P203  P204  P205  P206  P207  P208  P209 
 P210  P211  P212  P213  P214  P215  P216  P217  P218  P219  P220  P221  P222 
 P223  P224  P225  P226  P227  P228  P229  P230  P231  P232  P233  P234  P235 
 P236  P237  P238  P239  P240  P241  P242  P243  P244  P245  P246  P247  P248 
 P249  P250  P251  P252  P253  P254  P255  P256  P257  P258  P259  P260  P261 
 P262  P263  P264  P265  P266  P267  P268  P269  P270  P271  P272  P273  P274 
 P275  P276  P277  P278  P279  P280  P281  P282  P283  P284  P285  P286  P287 
 P288  P289  P290  P291  P292  P293  P294  P295  P296  P297  P298  P299  P300 
 P301  P302  P303  P304  P305  P306  P307  P308  P309  P310  P311  P312  P313 
 P314  P315  P316  P317  P318  P319  P320  P321  P322  P323  P324  P325  P326 
 P327  P328  P329  P330  P331  P332  P333  P334  P335  P336  P337  P338  P339 
 P340  P341  P342  P343  P344  P345  P346  P347  P348  P349  P350  P351  P352 
 P353  P354  P355  P356  P357  P358  P359  P360  P361  P362  P363  P364  P365 
 P366  P367  P368  P369  P370  P371 
End
